62      4       
18      13      13      13      
0       0       0       0       0       3       2       3       4       
6       0       0       3       0       3       7       18      30      
2       0       5       0       0       3       5       13      52      
10      0       0       8       0       2       6       17      
7       0       0       4       0       3       10      17      19      
5       4       0       0       0       2       8       42      
1       0       10      0       0       2       59      60      
1       0       0       7       0       3       9       12      14      
10      3       0       0       0       2       11      35      
10      0       0       0       3       1       25      
5       0       5       0       0       3       15      27      46      
4       0       0       0       6       3       16      20      33      
8       0       0       1       0       3       23      24      51      
10      7       0       0       0       2       23      52      
7       1       0       0       0       2       21      38      
5       0       0       0       4       3       23      41      58      
7       0       2       0       0       1       34      
3       0       0       0       1       2       26      56      
1       4       0       0       0       2       26      50      
8       0       6       0       0       2       22      28      
10      0       0       0       2       2       30      45      
6       0       0       0       3       1       32      
10      0       0       0       3       1       48      
4       7       0       0       0       3       26      36      39      
3       0       0       2       0       2       29      49      
6       0       0       0       8       1       42      
6       0       0       10      0       1       56      
4       0       0       2       0       3       30      53      61      
4       0       0       0       5       3       31      32      55      
3       3       0       0       0       1       31      
9       8       0       0       0       1       36      
7       0       0       2       0       2       36      48      
3       0       8       0       0       3       40      44      46      
5       8       0       0       0       1       37      
3       0       0       4       0       2       39      51      
3       0       0       0       9       1       58      
2       0       0       0       7       3       41      43      44      
1       6       0       0       0       2       43      44      
4       0       0       0       4       1       48      
4       0       0       2       0       2       43      55      
2       0       0       8       0       1       56      
8       9       0       0       0       2       45      47      
5       0       0       0       1       1       54      
1       1       0       0       0       2       45      47      
7       0       9       0       0       2       49      55      
5       0       6       0       0       3       47      49      52      
8       8       0       0       0       2       54      57      
5       8       0       0       0       1       53      
3       4       0       0       0       1       57      
5       0       0       0       1       2       51      54      
8       8       0       0       0       1       61      
3       0       0       0       8       2       53      59      
8       0       6       0       0       1       60      
8       0       0       0       2       1       58      
7       0       0       5       0       1       57      
1       0       0       8       0       1       61      
5       0       6       0       0       1       59      
5       5       0       0       0       1       60      
2       0       0       4       0       1       62      
9       8       0       0       0       1       62      
8       0       0       0       7       1       62      
0       0       0       0       0       0       